400
750
600
600
596
596
595
595
595
593
593
593
592
591
590
590
586
586
586
585
585
584
583
581
580
579
579
578
577
575
574
573
569
569
566
565
565
564
563
562
562
561
561
561
560
558
557
556
555
553
553
553
552
552
550
548
547
547
546
544
544
543
542
542
540
540
540
537
535
534
532
530
528
528
528
526
526
523
522
521
521
521
521
518
512
512
511
507
507
505
504
504
502
499
499
498
495
494
494
493
493
492
490
489
487
487
485
485
485
485
484
484
482
481
480
479
479
478
476
476
475
470
469
469
468
468
465
465
465
464
463
462
462
462
462
462
461
461
461
461
460
460
459
458
457
457
456
452
452
450
447
446
445
444
443
442
442
438
437
434
432
430
429
428
427
427
427
423
423
421
414
413
412
410
408
408
407
404
404
401
400
398
398
396
395
395
394
394
393
389
388
388
387
386
385
385
385
384
383
381
379
378
377
377
374
371
371
370
370
369
367
367
367
366
365
363
363
361
361
360
360
360
356
356
353
352
351
348
347
345
343
341
338
338
338
338
337
337
336
334
332
331
331
330
328
326
326
321
318
318
317
315
314
313
312
310
307
305
304
304
302
298
297
296
295
295
295
294
293
293
293
292
292
291
288
288
286
286
284
284
283
280
280
280
279
279
279
278
278
277
277
274
272
270
269
269
268
268
266
266
265
261
259
258
256
253
250
246
246
245
245
243
243
242
241
239
239
239
238
236
236
236
235
235
235
233
228
227
226
223
222
222
222
222
219
219
218
217
216
212
212
212
212
210
209
208
208
206
204
202
200
200
197
197
197
196
194
194
193
193
191
190
190
189
188
187
187
185
185
185
184
182
181
180
180
177
176
176
176
176
175
174
174
172
171
170
170
168
167
164
164
163
161
161
159
158
158
158
156
155
150
150
